68709353888162212645012,12,1,2,02,11,1,2,011,5,1,2,012,10,1,2,07,4,1,2,014,3,1,2,011,13,1,2,03,9,1,2,09,9,1,2,015,9,1,2,011,11,1,2,010,6,1,2,013,11,1,2,012,11,1,2,011,5,1,2,07,12,1,2,04,12,1,2,03,13,1,2,05,14,1,2,02,14,1,2,05,2,1,2,014,3,1,2,07,9,1,2,04,3,1,2,03,6,1,2,09,3,1,2,02,1,1,2,01,1,1,2,015,9,1,2,03,5,1,2,014,1,1,2,08,2,1,2,015,13,1,2,07,6,1,2,05,5,1,2,015,3,1,2,015,4,1,2,02,9,1,2,01,8,1,2,012,2,1,2,013,7,1,2,01,10,1,2,015,4,1,2,012,8,1,2,03,6,1,2,04,1,1,2,01,15,1,2,013,4,1,2,014,6,1,2,014,8,1,2,0